c Le chateau d'eau
p max 7 9
n 1 s
n 7 t
cn 2 A
cn 3 B
cn 4 C
cn 5 D
cn 6 E
a     1      2     50
a     1      3     80
a     2      4     40
a     2      5     20
a     3      5     50
a     3      6     20
a     4      7     70
a     5      7     30
a     6      7     30
